Route #1: 0 1 17 18 54 53 20 52 0
Route #2: 0 41 55 23 51 19 35 7 0
Route #3: 0 11 57 56 22 34 43 13 45 0
Route #4: 0 31 38 64 59 61 47 0
Route #5: 0 50 16 62 37 63 46 2 0
Route #6: 0 6 24 12 49 9 0
Route #7: 0 30 48 25 44 26 10 28 0
Route #8: 0 36 21 14 39 29 3 15 60 4 8 65 33 0
Route #9: 0 42 27 5 40 58 32 0
Cost 1390:
